c A SAT instance generated from a 3-CNF formula that had 44 clauses and 11 variables
p cnf 11 44
-3 -10 5 0
-7 9 -10 0
-2 6 -4 0
6 -10 9 0
8 4 7 0
-7 10 11 0
7 5 6 0
-3 7 -1 0
8 -9 3 0
11 6 -9 0
8 -9 3 0
-4 2 6 0
-3 5 8 0
-9 11 4 0
8 11 -9 0
-4 -7 6 0
-7 -10 4 0
5 10 1 0
4 9 5 0
2 1 -10 0
-8 3 -9 0
4 -2 -7 0
10 -8 -7 0
-7 -9 11 0
5 -11 8 0
-9 3 -7 0
-3 -10 7 0
4 7 -5 0
10 6 -3 0
3 10 1 0
-1 -2 3 0
-11 -9 4 0
-1 -3 -7 0
7 11 -5 0
9 -7 1 0
3 6 2 0
11 -10 4 0
8 5 -9 0
-8 4 -7 0
-1 -9 -4 0
-5 -10 1 0
-6 10 -3 0
9 -1 5 0
-8 4 9 0
